SDVRP instances/custom_instances/p02_30_split0.vrp
NAME:p02_30_split
BEST_KNOWN: 0
COMMENT: 0
DIMENSION: 385
CAPACITY: 140
EDGE_WEIGHT_FORMAT: FUNCTION
EDGE_WEIGHT_TYPE: EXACT_2D
NODE_COORD_SECTION
1 0.00000 0.00000
2 -28 32
3 -28 32
4 -28 32
5 -28 32
6 -28 32
7 -28 32
8 -28 32
9 -28 32
10 27 -28
11 27 -28
12 27 -28
13 5 -7
14 5 -7
15 5 -7
16 5 -7
17 -42 10
18 -42 10
19 -42 10
20 -42 10
21 -42 10
22 -41 -3
23 -41 -3
24 -41 -3
25 -41 -3
26 -41 -3
27 -41 -3
28 -37 4
29 -37 4
30 -37 4
31 -37 4
32 -37 4
33 -6 9
34 -6 9
35 -6 9
36 -6 9
37 -6 9
38 -6 9
39 -6 9
40 -6 9
41 27 3
42 27 3
43 27 3
44 27 3
45 27 3
46 27 3
47 27 3
48 -18 -8
49 -18 -8
50 -18 -8
51 -18 -8
52 -41 -35
53 -41 -35
54 -41 -35
55 -41 -35
56 -41 -35
57 -41 -35
58 -41 -35
59 8 2
60 8 2
61 8 2
62 8 2
63 8 2
64 -33 0
65 -33 0
66 -33 0
67 -33 0
68 -33 0
69 -46 22
70 -46 22
71 -46 22
72 -46 22
73 -46 22
74 -46 22
75 -37 -48
76 -37 -48
77 -37 -48
78 -37 -48
79 -37 -48
80 -37 -48
81 -37 -48
82 -37 -48
83 49 -7
84 49 -7
85 -28 -42
86 -28 -42
87 -28 -42
88 -34 -11
89 -34 -11
90 -34 -11
91 45 35
92 45 35
93 -13 14
94 -13 14
95 -13 14
96 -13 14
97 -13 14
98 -13 14
99 -40 6
100 -40 6
101 -40 6
102 -40 6
103 -40 6
104 -40 6
105 -40 6
106 -40 6
107 13 -23
108 13 -23
109 13 -23
110 2 19
111 2 19
112 2 19
113 2 19
114 -10 -30
115 -10 -30
116 -10 -30
117 -10 -30
118 -10 -30
119 -10 -30
120 29 28
121 29 28
122 36 37
123 36 37
124 36 37
125 36 37
126 36 37
127 36 37
128 16 -50
129 16 -50
130 16 -50
131 16 -50
132 16 -50
133 16 -50
134 16 -50
135 16 -50
136 16 -50
137 48 23
138 48 23
139 48 23
140 48 23
141 48 23
142 17 28
143 17 28
144 17 28
145 17 28
146 -32 -38
147 -32 -38
148 -32 -38
149 27 -3
150 27 -3
151 27 -3
152 27 -3
153 10 -45
154 10 -45
155 10 -45
156 10 -45
157 10 -45
158 10 -45
159 10 -45
160 22 -38
161 22 -38
162 22 -38
163 22 -38
164 -35 39
165 -35 39
166 -35 39
167 -35 39
168 -35 39
169 -35 39
170 -35 39
171 -35 39
172 10 20
173 10 20
174 -21 32
175 -21 32
176 -9 33
177 -9 33
178 -9 33
179 -9 33
180 -17 13
181 -17 13
182 -17 13
183 -17 13
184 -4 -48
185 -4 -48
186 -4 -48
187 8 -27
188 8 -27
189 8 -27
190 8 -27
191 19 -45
192 19 -45
193 19 -45
194 19 -45
195 19 -45
196 19 -45
197 19 -45
198 19 -45
199 -13 24
200 -13 24
201 -13 24
202 -13 24
203 -13 24
204 -13 24
205 -13 24
206 -44 0
207 -44 0
208 -44 0
209 -44 0
210 -44 0
211 50 -33
212 50 -33
213 50 -33
214 50 -33
215 50 -33
216 50 -33
217 50 -33
218 50 -33
219 -38 19
220 -38 19
221 -38 19
222 -38 19
223 -38 19
224 -38 19
225 -38 19
226 -38 19
227 18 -7
228 18 -7
229 18 -7
230 18 -7
231 18 -7
232 18 -7
233 -33 -6
234 -33 -6
235 -33 -6
236 -33 -6
237 27 -44
238 27 -44
239 27 -44
240 27 -44
241 27 -44
242 27 -44
243 27 -44
244 -24 -20
245 -24 -20
246 -24 -20
247 -24 -20
248 -24 -20
249 -24 -20
250 38 20
251 38 20
252 38 20
253 -1 -10
254 -1 -10
255 -1 -10
256 45 3
257 45 3
258 45 3
259 45 3
260 45 3
261 45 3
262 45 3
263 45 3
264 45 3
265 -30 36
266 -30 36
267 -30 36
268 -37 26
269 -37 26
270 -37 26
271 -48 49
272 -48 49
273 -48 49
274 -48 49
275 -48 49
276 -24 18
277 -24 18
278 -24 18
279 -24 18
280 16 23
281 16 23
282 16 23
283 16 23
284 16 23
285 38 -49
286 38 -49
287 38 -49
288 38 -49
289 38 -49
290 38 -49
291 38 -49
292 8 28
293 8 28
294 8 28
295 8 28
296 30 35
297 30 35
298 30 35
299 30 35
300 30 35
301 -2 -23
302 -2 -23
303 -2 -23
304 -2 -23
305 -2 -23
306 22 -23
307 22 -23
308 22 -23
309 22 -23
310 22 -23
311 -39 0
312 -39 0
313 -39 0
314 -39 0
315 11 38
316 11 38
317 11 38
318 11 38
319 13 -41
320 13 -41
321 13 -41
322 13 -41
323 13 -41
324 13 -41
325 18 -35
326 18 -35
327 18 -35
328 18 -35
329 18 -35
330 18 -35
331 18 -35
332 18 -35
333 18 -35
334 5 -22
335 5 -22
336 5 -22
337 5 -22
338 5 -22
339 5 -22
340 5 -22
341 5 -22
342 5 -22
343 23 41
344 23 41
345 23 41
346 23 41
347 -26 31
348 -26 31
349 -26 31
350 -26 31
351 -26 31
352 -26 31
353 -26 31
354 -26 31
355 -26 31
356 19 -25
357 19 -25
358 19 -25
359 -19 -2
360 -19 -2
361 -19 -2
362 -19 -2
363 12 -26
364 12 -26
365 12 -26
366 -46 4
367 -46 4
368 -46 4
369 -46 4
370 -46 4
371 -37 15
372 -37 15
373 -37 15
374 -37 15
375 -37 15
376 -37 15
377 -37 15
378 37 -35
379 37 -35
380 37 -35
381 37 -35
382 -13 -45
383 -13 -45
384 -13 -45
385 -13 -45
DEMAND_SECTION
1 0
2 28
3 28
4 7
5 1
6 1
7 1
8 1
9 1
10 28
11 28
12 14
13 28
14 7
15 1
16 1
17 14
18 7
19 1
20 1
21 1
22 28
23 28
24 1
25 1
26 1
27 1
28 28
29 7
30 1
31 1
32 1
33 14
34 7
35 1
36 1
37 1
38 1
39 1
40 1
41 28
42 14
43 1
44 1
45 1
46 1
47 1
48 14
49 7
50 1
51 1
52 14
53 1
54 1
55 1
56 1
57 1
58 1
59 28
60 14
61 7
62 1
63 1
64 28
65 7
66 1
67 1
68 1
69 28
70 28
71 1
72 1
73 1
74 1
75 28
76 7
77 1
78 1
79 1
80 1
81 1
82 1
83 14
84 7
85 28
86 28
87 14
88 28
89 7
90 1
91 28
92 1
93 28
94 28
95 7
96 1
97 1
98 1
99 28
100 7
101 1
102 1
103 1
104 1
105 1
106 1
107 28
108 14
109 7
110 28
111 14
112 1
113 1
114 14
115 1
116 1
117 1
118 1
119 1
120 14
121 7
122 28
123 14
124 1
125 1
126 1
127 1
128 28
129 28
130 7
131 1
132 1
133 1
134 1
135 1
136 1
137 28
138 28
139 1
140 1
141 1
142 28
143 28
144 7
145 1
146 28
147 28
148 14
149 28
150 28
151 1
152 1
153 28
154 14
155 1
156 1
157 1
158 1
159 1
160 28
161 28
162 1
163 1
164 28
165 14
166 7
167 1
168 1
169 1
170 1
171 1
172 28
173 1
174 28
175 7
176 28
177 14
178 1
179 1
180 14
181 7
182 1
183 1
184 28
185 7
186 1
187 28
188 28
189 7
190 1
191 28
192 14
193 1
194 1
195 1
196 1
197 1
198 1
199 14
200 7
201 1
202 1
203 1
204 1
205 1
206 14
207 1
208 1
209 1
210 1
211 28
212 28
213 1
214 1
215 1
216 1
217 1
218 1
219 28
220 28
221 1
222 1
223 1
224 1
225 1
226 1
227 28
228 1
229 1
230 1
231 1
232 1
233 28
234 28
235 7
236 1
237 28
238 28
239 1
240 1
241 1
242 1
243 1
244 28
245 14
246 1
247 1
248 1
249 1
250 28
251 1
252 1
253 14
254 7
255 1
256 28
257 28
258 7
259 1
260 1
261 1
262 1
263 1
264 1
265 28
266 28
267 14
268 28
269 28
270 14
271 28
272 14
273 7
274 1
275 1
276 28
277 14
278 1
279 1
280 14
281 7
282 1
283 1
284 1
285 14
286 1
287 1
288 1
289 1
290 1
291 1
292 28
293 14
294 7
295 1
296 14
297 1
298 1
299 1
300 1
301 28
302 14
303 7
304 1
305 1
306 28
307 7
308 1
309 1
310 1
311 28
312 28
313 1
314 1
315 14
316 7
317 1
318 1
319 28
320 14
321 7
322 1
323 1
324 1
325 28
326 14
327 7
328 1
329 1
330 1
331 1
332 1
333 1
334 28
335 28
336 7
337 1
338 1
339 1
340 1
341 1
342 1
343 28
344 1
345 1
346 1
347 28
348 14
349 7
350 1
351 1
352 1
353 1
354 1
355 1
356 28
357 14
358 1
359 14
360 1
361 1
362 1
363 28
364 14
365 1
366 28
367 28
368 1
369 1
370 1
371 28
372 28
373 1
374 1
375 1
376 1
377 1
378 14
379 7
380 1
381 1
382 28
383 28
384 7
385 1
DEPOT_SECTION
1
-1
EOF