SDVRP instances/custom_instances/p02_30_split0.sol
384 -6 5 7 4 8 3 2 1 266 265 264 349 350 -15 14 12 13 333 339 334 341 340 336 301 300 303 -22 21 26 24 25 23 209 207 205 206 208 366 365 369 368 367 -29 31 30 28 27 312 310 313 311 66 65 63 64 67 -32 278 276 275 222 223 225 221 224 219 218 220 179 180 -36 34 38 33 39 353 346 347 348 174 173 177 175 178 176 -37 35 198 203 202 200 204 201 199 351 354 352 170 166 164 169 168 163 165 167 271 272 274 270 273 -40 46 44 43 45 41 42 259 258 260 256 263 255 261 257 262 83 82 -50 48 49 47 87 89 88 234 232 233 235 360 358 359 361 -53 56 54 55 51 52 57 75 80 81 78 76 77 79 74 86 85 84 -59 61 62 60 58 150 151 149 148 228 226 227 230 -68 71 69 72 73 70 269 267 268 277 181 182 -96 97 95 92 94 93 110 112 109 111 171 172 -101 104 103 100 105 99 102 98 17 16 19 20 18 372 374 373 370 375 376 371 -106 107 108 188 189 186 187 337 335 338 252 -114 115 118 117 113 116 381 383 384 382 185 184 183 302 304 254 253 -119 120 90 91 139 140 138 136 137 250 251 249 -147 146 145 244 247 246 248 245 243 -152 153 156 157 158 155 154 320 318 322 319 362 363 364 -229 231 380 379 378 377 214 216 217 213 212 210 211 215 290 287 289 286 288 284 285 239 242 238 240 236 -281 283 282 280 279 141 144 143 142 291 292 293 294 -299 296 298 297 295 123 125 126 121 124 122 343 345 344 342 314 316 315 317 -309 306 307 308 305 9 11 10 355 -323 321 134 132 130 135 129 131 128 127 133 192 196 194 195 193 191 190 197 327 331 325 332 -328 324 326 329 330 161 162 160 159 237 241 356 357 0 





OBJ=
2388.550
BEST_KNOWN=
0.000